nK = 1848;
nT = 8;
nI = 21;
L = 35;
TT = 378;
np = 1;
nc = 3;
b = [70, 62, 25, 52, 20, 59, 64, 63, 60, 58, 70, 53, 53, 65, 59, 60, 67, 33, 34, 22, 48];
d = [139, 138, 95, 107, 66, 126, 116, 105, 108, 114, 150, 125, 80, 108, 106, 149, 140, 56, 76, 145, 98];
m = [2.4, 1.7, 2.1, 1.7, 1, 2.4, 1.5, 1.5, 1.1, 1.8, 2.1, 2.4, 2.3, 1.3, 1.5, 1.4, 1.5, 1.7, 1.3, 2.2, 1.1];
pt = [0.35, 0.28, 0.3, 0.2, 0.3, 0.29, 0.26, 0.28];
st = [17.15, 16.24, 17.4, 8.4, 13.2, 15.37, 12.48, 16.8];
arc = {<1, 0, 1, 1, 0, 0, 0, [1, 1, 1, 1, 1, 1, 1, 1]>, <2, 1, 2, 1, 0, 0, 0, [1, 1, 1, 1, 1, 1, 1, 1]>, <3, 2, 3, 1, 0, 0, 0, [1, 1, 1, 1, 1, 1, 1, 1]>, <4, 3, 4, 1, 0, 0, 0, [1, 1, 1, 1, 1, 1, 1, 1]>, <5, 4, 5, 1, 0, 0, 0, [1, 1, 1, 1, 1, 1, 1, 1]>, <6, 5, 6, 1, 0, 0, 0, [1, 1, 1, 1, 1, 1, 1, 1]>, <7, 6, 7, 1, 0, 0, 0, [1, 1, 1, 1, 1, 1, 1, 1]>, <8, 7, 8, 1, 0, 0, 0, [1, 1, 1, 1, 1, 1, 1, 1]>, <9, 8, 9, 1, 0, 0, 0, [1, 1, 1, 1, 1, 1, 1, 1]>, <10, 9, 10, 1, 0, 0, 0, [1, 1, 1, 1, 1, 1, 1, 1]>, <11, 10, 11, 1, 0, 0, 0, [1, 1, 1, 1, 1, 1, 1, 1]>, <12, 11, 12, 1, 0, 0, 0, [1, 1, 1, 1, 1, 1, 1, 1]>, <13, 12, 13, 1, 0, 0, 0, [1, 1, 1, 1, 1, 1, 1, 1]>, <14, 13, 14, 1, 0, 0, 0, [1, 1, 1, 1, 1, 1, 1, 1]>, <15, 14, 15, 1, 0, 0, 0, [1, 1, 1, 1, 1, 1, 1, 1]>, <16, 15, 16, 1, 0, 0, 0, [1, 1, 1, 1, 1, 1, 1, 1]>, <17, 16, 17, 1, 0, 0, 0, [1, 1, 1, 1, 1, 1, 1, 1]>, <18, 17, 18, 1, 0, 0, 0, [1, 1, 1, 1, 1, 1, 1, 1]>, <19, 18, 19, 1, 0, 0, 0, [1, 1, 1, 1, 1, 1, 1, 1]>, <20, 19, 20, 1, 0, 0, 0, [1, 1, 1, 1, 1, 1, 1, 1]>, <21, 20, 21, 1, 0, 0, 0, [1, 1, 1, 1, 1, 1, 1, 1]>, <22, 21, 22, 1, 0, 0, 0, [1, 1, 1, 1, 1, 1, 1, 1]>, <23, 22, 23, 1, 0, 0, 0, [1, 1, 1, 1, 1, 1, 1, 1]>, <24, 23, 24, 1, 0, 0, 0, [1, 1, 1, 1, 1, 1, 1, 1]>, <25, 24, 25, 1, 0, 0, 0, [1, 1, 1, 1, 1, 1, 1, 1]>, <26, 25, 26, 1, 0, 0, 0, [1, 1, 1, 1, 1, 1, 1, 1]>, <27, 26, 27, 1, 0, 0, 0, [1, 1, 1, 1, 1, 1, 1, 1]>, <28, 27, 28, 1, 0, 0, 0, [1, 1, 1, 1, 1, 1, 1, 1]>, <29, 28, 29, 1, 0, 0, 0, [1, 1, 1, 1, 1, 1, 1, 1]>, <30, 29, 30, 1, 0, 0, 0, [1, 1, 1, 1, 1, 1, 1, 1]>, <31, 30, 31, 1, 0, 0, 0, [1, 1, 1, 1, 1, 1, 1, 1]>, <32, 31, 32, 1, 0, 0, 0, [1, 1, 1, 1, 1, 1, 1, 1]>, <33, 32, 33, 1, 0, 0, 0, [1, 1, 1, 1, 1, 1, 1, 1]>, <34, 33, 34, 1, 0, 0, 0, [1, 1, 1, 1, 1, 1, 1, 1]>, <35, 34, 35, 1, 0, 0, 0, [1, 1, 1, 1, 1, 1, 1, 1]>, <36, 4, 17, 13, 1, 0, 1, [0, 0, 0, 0, 0, 1, 1, 0]>, <37, 5, 18, 13, 1, 0, 1, [0, 0, 0, 0, 0, 1, 1, 0]>, <38, 6, 19, 13, 1, 0, 1, [0, 0, 0, 0, 0, 1, 1, 0]>, <39, 13, 26, 13, 1, 0, 1, [0, 0, 0, 0, 0, 1, 1, 0]>, <40, 14, 27, 13, 1, 0, 1, [0, 0, 0, 0, 0, 1, 1, 0]>, <41, 15, 28, 13, 1, 0, 1, [0, 0, 0, 0, 0, 1, 1, 0]>, <42, 18, 31, 13, 1, 0, 1, [0, 0, 0, 0, 0, 1, 1, 0]>, <43, 19, 32, 13, 1, 0, 1, [0, 0, 0, 0, 0, 1, 1, 0]>, <44, 20, 33, 13, 1, 0, 1, [0, 0, 0, 0, 0, 1, 1, 0]>, <45, 21, 34, 13, 1, 0, 1, [0, 0, 0, 0, 0, 1, 1, 0]>, <46, 22, 35, 13, 1, 0, 1, [0, 0, 0, 0, 0, 1, 1, 0]>, <47, 3, 17, 14, 2, 0, 1, [0, 0, 0, 0, 0, 0, 1, 1]>, <48, 4, 18, 14, 2, 0, 1, [0, 0, 0, 0, 0, 0, 1, 1]>, <49, 5, 19, 14, 2, 0, 1, [0, 0, 0, 0, 0, 0, 1, 1]>, <50, 6, 20, 14, 2, 0, 1, [0, 0, 0, 0, 0, 0, 1, 1]>, <51, 12, 26, 14, 2, 0, 1, [0, 0, 0, 0, 0, 0, 1, 1]>, <52, 13, 27, 14, 2, 0, 1, [0, 0, 0, 0, 0, 0, 1, 1]>, <53, 14, 28, 14, 2, 0, 1, [0, 0, 0, 0, 0, 0, 1, 1]>, <54, 15, 29, 14, 2, 0, 1, [0, 0, 0, 0, 0, 0, 1, 1]>, <55, 17, 31, 14, 2, 0, 1, [0, 0, 0, 0, 0, 0, 1, 1]>, <56, 18, 32, 14, 2, 0, 1, [0, 0, 0, 0, 0, 0, 1, 1]>, <57, 19, 33, 14, 2, 0, 1, [0, 0, 0, 0, 0, 0, 1, 1]>, <58, 20, 34, 14, 2, 0, 1, [0, 0, 0, 0, 0, 0, 1, 1]>, <59, 21, 35, 14, 2, 0, 1, [0, 0, 0, 0, 0, 0, 1, 1]>, <60, 3, 17, 14, 3, 0, 1, [0, 0, 0, 0, 1, 1, 0, 0]>, <61, 4, 18, 14, 3, 0, 1, [0, 0, 0, 0, 1, 1, 0, 0]>, <62, 5, 19, 14, 3, 0, 1, [0, 0, 0, 0, 1, 1, 0, 0]>, <63, 6, 20, 14, 3, 0, 1, [0, 0, 0, 0, 1, 1, 0, 0]>, <64, 12, 26, 14, 3, 0, 1, [0, 0, 0, 0, 1, 1, 0, 0]>, <65, 13, 27, 14, 3, 0, 1, [0, 0, 0, 0, 1, 1, 0, 0]>, <66, 14, 28, 14, 3, 0, 1, [0, 0, 0, 0, 1, 1, 0, 0]>, <67, 15, 29, 14, 3, 0, 1, [0, 0, 0, 0, 1, 1, 0, 0]>, <68, 17, 31, 14, 3, 0, 1, [0, 0, 0, 0, 1, 1, 0, 0]>, <69, 18, 32, 14, 3, 0, 1, [0, 0, 0, 0, 1, 1, 0, 0]>, <70, 19, 33, 14, 3, 0, 1, [0, 0, 0, 0, 1, 1, 0, 0]>, <71, 20, 34, 14, 3, 0, 1, [0, 0, 0, 0, 1, 1, 0, 0]>, <72, 21, 35, 14, 3, 0, 1, [0, 0, 0, 0, 1, 1, 0, 0]>, <73, 5, 16, 11, 4, 1, 0, [1, 0, 0, 0, 0, 0, 0, 1]>, <74, 6, 17, 11, 4, 1, 0, [1, 0, 0, 0, 0, 0, 0, 1]>, <75, 14, 25, 11, 4, 1, 0, [1, 0, 0, 0, 0, 0, 0, 1]>, <76, 15, 26, 11, 4, 1, 0, [1, 0, 0, 0, 0, 0, 0, 1]>, <77, 20, 31, 11, 4, 1, 0, [1, 0, 0, 0, 0, 0, 0, 1]>, <78, 21, 32, 11, 4, 1, 0, [1, 0, 0, 0, 0, 0, 0, 1]>, <79, 22, 33, 11, 4, 1, 0, [1, 0, 0, 0, 0, 0, 0, 1]>, <80, 23, 34, 11, 4, 1, 0, [1, 0, 0, 0, 0, 0, 0, 1]>, <81, 24, 35, 11, 4, 1, 0, [1, 0, 0, 0, 0, 0, 0, 1]>, <82, 2, 17, 15, 5, 0, 0, [0, 1, 1, 0, 0, 0, 0, 0]>, <83, 3, 18, 15, 5, 0, 0, [0, 1, 1, 0, 0, 0, 0, 0]>, <84, 4, 19, 15, 5, 0, 0, [0, 1, 1, 0, 0, 0, 0, 0]>, <85, 5, 20, 15, 5, 0, 0, [0, 1, 1, 0, 0, 0, 0, 0]>, <86, 6, 21, 15, 5, 0, 0, [0, 1, 1, 0, 0, 0, 0, 0]>, <87, 11, 26, 15, 5, 0, 0, [0, 1, 1, 0, 0, 0, 0, 0]>, <88, 12, 27, 15, 5, 0, 0, [0, 1, 1, 0, 0, 0, 0, 0]>, <89, 13, 28, 15, 5, 0, 0, [0, 1, 1, 0, 0, 0, 0, 0]>, <90, 14, 29, 15, 5, 0, 0, [0, 1, 1, 0, 0, 0, 0, 0]>, <91, 15, 30, 15, 5, 0, 0, [0, 1, 1, 0, 0, 0, 0, 0]>, <92, 16, 31, 15, 5, 0, 0, [0, 1, 1, 0, 0, 0, 0, 0]>, <93, 17, 32, 15, 5, 0, 0, [0, 1, 1, 0, 0, 0, 0, 0]>, <94, 18, 33, 15, 5, 0, 0, [0, 1, 1, 0, 0, 0, 0, 0]>, <95, 19, 34, 15, 5, 0, 0, [0, 1, 1, 0, 0, 0, 0, 0]>, <96, 20, 35, 15, 5, 0, 0, [0, 1, 1, 0, 0, 0, 0, 0]>, <97, 5, 15, 10, 6, 0, 1, [0, 0, 0, 0, 1, 1, 0, 0]>, <98, 6, 16, 10, 6, 0, 1, [0, 0, 0, 0, 1, 1, 0, 0]>, <99, 14, 24, 10, 6, 0, 1, [0, 0, 0, 0, 1, 1, 0, 0]>, <100, 15, 25, 10, 6, 0, 1, [0, 0, 0, 0, 1, 1, 0, 0]>, <101, 21, 31, 10, 6, 0, 1, [0, 0, 0, 0, 1, 1, 0, 0]>, <102, 22, 32, 10, 6, 0, 1, [0, 0, 0, 0, 1, 1, 0, 0]>, <103, 23, 33, 10, 6, 0, 1, [0, 0, 0, 0, 1, 1, 0, 0]>, <104, 24, 34, 10, 6, 0, 1, [0, 0, 0, 0, 1, 1, 0, 0]>, <105, 5, 15, 10, 7, 0, 0, [0, 0, 1, 1, 0, 0, 0, 0]>, <106, 6, 16, 10, 7, 0, 0, [0, 0, 1, 1, 0, 0, 0, 0]>, <107, 14, 24, 10, 7, 0, 0, [0, 0, 1, 1, 0, 0, 0, 0]>, <108, 15, 25, 10, 7, 0, 0, [0, 0, 1, 1, 0, 0, 0, 0]>, <109, 21, 31, 10, 7, 0, 0, [0, 0, 1, 1, 0, 0, 0, 0]>, <110, 22, 32, 10, 7, 0, 0, [0, 0, 1, 1, 0, 0, 0, 0]>, <111, 23, 33, 10, 7, 0, 0, [0, 0, 1, 1, 0, 0, 0, 0]>, <112, 24, 34, 10, 7, 0, 0, [0, 0, 1, 1, 0, 0, 0, 0]>, <113, 5, 15, 10, 8, 1, 0, [0, 0, 0, 0, 0, 0, 1, 1]>, <114, 6, 16, 10, 8, 1, 0, [0, 0, 0, 0, 0, 0, 1, 1]>, <115, 14, 24, 10, 8, 1, 0, [0, 0, 0, 0, 0, 0, 1, 1]>, <116, 15, 25, 10, 8, 1, 0, [0, 0, 0, 0, 0, 0, 1, 1]>, <117, 21, 31, 10, 8, 1, 0, [0, 0, 0, 0, 0, 0, 1, 1]>, <118, 22, 32, 10, 8, 1, 0, [0, 0, 0, 0, 0, 0, 1, 1]>, <119, 23, 33, 10, 8, 1, 0, [0, 0, 0, 0, 0, 0, 1, 1]>, <120, 24, 34, 10, 8, 1, 0, [0, 0, 0, 0, 0, 0, 1, 1]>, <121, 3, 17, 14, 9, 0, 1, [0, 0, 0, 0, 0, 1, 1, 0]>, <122, 4, 18, 14, 9, 0, 1, [0, 0, 0, 0, 0, 1, 1, 0]>, <123, 5, 19, 14, 9, 0, 1, [0, 0, 0, 0, 0, 1, 1, 0]>, <124, 6, 20, 14, 9, 0, 1, [0, 0, 0, 0, 0, 1, 1, 0]>, <125, 12, 26, 14, 9, 0, 1, [0, 0, 0, 0, 0, 1, 1, 0]>, <126, 13, 27, 14, 9, 0, 1, [0, 0, 0, 0, 0, 1, 1, 0]>, <127, 14, 28, 14, 9, 0, 1, [0, 0, 0, 0, 0, 1, 1, 0]>, <128, 15, 29, 14, 9, 0, 1, [0, 0, 0, 0, 0, 1, 1, 0]>, <129, 17, 31, 14, 9, 0, 1, [0, 0, 0, 0, 0, 1, 1, 0]>, <130, 18, 32, 14, 9, 0, 1, [0, 0, 0, 0, 0, 1, 1, 0]>, <131, 19, 33, 14, 9, 0, 1, [0, 0, 0, 0, 0, 1, 1, 0]>, <132, 20, 34, 14, 9, 0, 1, [0, 0, 0, 0, 0, 1, 1, 0]>, <133, 21, 35, 14, 9, 0, 1, [0, 0, 0, 0, 0, 1, 1, 0]>, <134, 4, 17, 13, 10, 0, 0, [0, 1, 1, 0, 0, 0, 0, 0]>, <135, 5, 18, 13, 10, 0, 0, [0, 1, 1, 0, 0, 0, 0, 0]>, <136, 6, 19, 13, 10, 0, 0, [0, 1, 1, 0, 0, 0, 0, 0]>, <137, 13, 26, 13, 10, 0, 0, [0, 1, 1, 0, 0, 0, 0, 0]>, <138, 14, 27, 13, 10, 0, 0, [0, 1, 1, 0, 0, 0, 0, 0]>, <139, 15, 28, 13, 10, 0, 0, [0, 1, 1, 0, 0, 0, 0, 0]>, <140, 18, 31, 13, 10, 0, 0, [0, 1, 1, 0, 0, 0, 0, 0]>, <141, 19, 32, 13, 10, 0, 0, [0, 1, 1, 0, 0, 0, 0, 0]>, <142, 20, 33, 13, 10, 0, 0, [0, 1, 1, 0, 0, 0, 0, 0]>, <143, 21, 34, 13, 10, 0, 0, [0, 1, 1, 0, 0, 0, 0, 0]>, <144, 22, 35, 13, 10, 0, 0, [0, 1, 1, 0, 0, 0, 0, 0]>, <145, 5, 16, 11, 11, 0, 0, [0, 0, 0, 0, 0, 1, 1, 0]>, <146, 6, 17, 11, 11, 0, 0, [0, 0, 0, 0, 0, 1, 1, 0]>, <147, 14, 25, 11, 11, 0, 0, [0, 0, 0, 0, 0, 1, 1, 0]>, <148, 15, 26, 11, 11, 0, 0, [0, 0, 0, 0, 0, 1, 1, 0]>, <149, 20, 31, 11, 11, 0, 0, [0, 0, 0, 0, 0, 1, 1, 0]>, <150, 21, 32, 11, 11, 0, 0, [0, 0, 0, 0, 0, 1, 1, 0]>, <151, 22, 33, 11, 11, 0, 0, [0, 0, 0, 0, 0, 1, 1, 0]>, <152, 23, 34, 11, 11, 0, 0, [0, 0, 0, 0, 0, 1, 1, 0]>, <153, 24, 35, 11, 11, 0, 0, [0, 0, 0, 0, 0, 1, 1, 0]>, <154, 5, 16, 11, 12, 0, 1, [0, 0, 0, 0, 0, 0, 1, 1]>, <155, 6, 17, 11, 12, 0, 1, [0, 0, 0, 0, 0, 0, 1, 1]>, <156, 14, 25, 11, 12, 0, 1, [0, 0, 0, 0, 0, 0, 1, 1]>, <157, 15, 26, 11, 12, 0, 1, [0, 0, 0, 0, 0, 0, 1, 1]>, <158, 20, 31, 11, 12, 0, 1, [0, 0, 0, 0, 0, 0, 1, 1]>, <159, 21, 32, 11, 12, 0, 1, [0, 0, 0, 0, 0, 0, 1, 1]>, <160, 22, 33, 11, 12, 0, 1, [0, 0, 0, 0, 0, 0, 1, 1]>, <161, 23, 34, 11, 12, 0, 1, [0, 0, 0, 0, 0, 0, 1, 1]>, <162, 24, 35, 11, 12, 0, 1, [0, 0, 0, 0, 0, 0, 1, 1]>, <163, 5, 15, 10, 13, 0, 0, [0, 0, 0, 0, 1, 1, 0, 0]>, <164, 6, 16, 10, 13, 0, 0, [0, 0, 0, 0, 1, 1, 0, 0]>, <165, 14, 24, 10, 13, 0, 0, [0, 0, 0, 0, 1, 1, 0, 0]>, <166, 15, 25, 10, 13, 0, 0, [0, 0, 0, 0, 1, 1, 0, 0]>, <167, 21, 31, 10, 13, 0, 0, [0, 0, 0, 0, 1, 1, 0, 0]>, <168, 22, 32, 10, 13, 0, 0, [0, 0, 0, 0, 1, 1, 0, 0]>, <169, 23, 33, 10, 13, 0, 0, [0, 0, 0, 0, 1, 1, 0, 0]>, <170, 24, 34, 10, 13, 0, 0, [0, 0, 0, 0, 1, 1, 0, 0]>, <171, 5, 15, 10, 14, 0, 1, [1, 1, 0, 0, 0, 0, 0, 0]>, <172, 6, 16, 10, 14, 0, 1, [1, 1, 0, 0, 0, 0, 0, 0]>, <173, 14, 24, 10, 14, 0, 1, [1, 1, 0, 0, 0, 0, 0, 0]>, <174, 15, 25, 10, 14, 0, 1, [1, 1, 0, 0, 0, 0, 0, 0]>, <175, 21, 31, 10, 14, 0, 1, [1, 1, 0, 0, 0, 0, 0, 0]>, <176, 22, 32, 10, 14, 0, 1, [1, 1, 0, 0, 0, 0, 0, 0]>, <177, 23, 33, 10, 14, 0, 1, [1, 1, 0, 0, 0, 0, 0, 0]>, <178, 24, 34, 10, 14, 0, 1, [1, 1, 0, 0, 0, 0, 0, 0]>, <179, 4, 17, 13, 15, 0, 0, [0, 0, 1, 1, 0, 0, 0, 0]>, <180, 5, 18, 13, 15, 0, 0, [0, 0, 1, 1, 0, 0, 0, 0]>, <181, 6, 19, 13, 15, 0, 0, [0, 0, 1, 1, 0, 0, 0, 0]>, <182, 13, 26, 13, 15, 0, 0, [0, 0, 1, 1, 0, 0, 0, 0]>, <183, 14, 27, 13, 15, 0, 0, [0, 0, 1, 1, 0, 0, 0, 0]>, <184, 15, 28, 13, 15, 0, 0, [0, 0, 1, 1, 0, 0, 0, 0]>, <185, 18, 31, 13, 15, 0, 0, [0, 0, 1, 1, 0, 0, 0, 0]>, <186, 19, 32, 13, 15, 0, 0, [0, 0, 1, 1, 0, 0, 0, 0]>, <187, 20, 33, 13, 15, 0, 0, [0, 0, 1, 1, 0, 0, 0, 0]>, <188, 21, 34, 13, 15, 0, 0, [0, 0, 1, 1, 0, 0, 0, 0]>, <189, 22, 35, 13, 15, 0, 0, [0, 0, 1, 1, 0, 0, 0, 0]>, <190, 5, 16, 11, 16, 0, 0, [0, 0, 1, 1, 0, 0, 0, 0]>, <191, 6, 17, 11, 16, 0, 0, [0, 0, 1, 1, 0, 0, 0, 0]>, <192, 14, 25, 11, 16, 0, 0, [0, 0, 1, 1, 0, 0, 0, 0]>, <193, 15, 26, 11, 16, 0, 0, [0, 0, 1, 1, 0, 0, 0, 0]>, <194, 20, 31, 11, 16, 0, 0, [0, 0, 1, 1, 0, 0, 0, 0]>, <195, 21, 32, 11, 16, 0, 0, [0, 0, 1, 1, 0, 0, 0, 0]>, <196, 22, 33, 11, 16, 0, 0, [0, 0, 1, 1, 0, 0, 0, 0]>, <197, 23, 34, 11, 16, 0, 0, [0, 0, 1, 1, 0, 0, 0, 0]>, <198, 24, 35, 11, 16, 0, 0, [0, 0, 1, 1, 0, 0, 0, 0]>, <199, 5, 15, 10, 17, 0, 1, [1, 0, 0, 0, 0, 0, 0, 1]>, <200, 6, 16, 10, 17, 0, 1, [1, 0, 0, 0, 0, 0, 0, 1]>, <201, 14, 24, 10, 17, 0, 1, [1, 0, 0, 0, 0, 0, 0, 1]>, <202, 15, 25, 10, 17, 0, 1, [1, 0, 0, 0, 0, 0, 0, 1]>, <203, 21, 31, 10, 17, 0, 1, [1, 0, 0, 0, 0, 0, 0, 1]>, <204, 22, 32, 10, 17, 0, 1, [1, 0, 0, 0, 0, 0, 0, 1]>, <205, 23, 33, 10, 17, 0, 1, [1, 0, 0, 0, 0, 0, 0, 1]>, <206, 24, 34, 10, 17, 0, 1, [1, 0, 0, 0, 0, 0, 0, 1]>, <207, 5, 15, 10, 18, 0, 0, [0, 0, 0, 0, 0, 1, 1, 0]>, <208, 6, 16, 10, 18, 0, 0, [0, 0, 0, 0, 0, 1, 1, 0]>, <209, 14, 24, 10, 18, 0, 0, [0, 0, 0, 0, 0, 1, 1, 0]>, <210, 15, 25, 10, 18, 0, 0, [0, 0, 0, 0, 0, 1, 1, 0]>, <211, 21, 31, 10, 18, 0, 0, [0, 0, 0, 0, 0, 1, 1, 0]>, <212, 22, 32, 10, 18, 0, 0, [0, 0, 0, 0, 0, 1, 1, 0]>, <213, 23, 33, 10, 18, 0, 0, [0, 0, 0, 0, 0, 1, 1, 0]>, <214, 24, 34, 10, 18, 0, 0, [0, 0, 0, 0, 0, 1, 1, 0]>, <215, 5, 16, 11, 19, 0, 1, [0, 0, 0, 1, 1, 0, 0, 0]>, <216, 6, 17, 11, 19, 0, 1, [0, 0, 0, 1, 1, 0, 0, 0]>, <217, 14, 25, 11, 19, 0, 1, [0, 0, 0, 1, 1, 0, 0, 0]>, <218, 15, 26, 11, 19, 0, 1, [0, 0, 0, 1, 1, 0, 0, 0]>, <219, 20, 31, 11, 19, 0, 1, [0, 0, 0, 1, 1, 0, 0, 0]>, <220, 21, 32, 11, 19, 0, 1, [0, 0, 0, 1, 1, 0, 0, 0]>, <221, 22, 33, 11, 19, 0, 1, [0, 0, 0, 1, 1, 0, 0, 0]>, <222, 23, 34, 11, 19, 0, 1, [0, 0, 0, 1, 1, 0, 0, 0]>, <223, 24, 35, 11, 19, 0, 1, [0, 0, 0, 1, 1, 0, 0, 0]>, <224, 5, 14, 9, 20, 1, 0, [0, 0, 0, 0, 1, 1, 0, 0]>, <225, 6, 15, 9, 20, 1, 0, [0, 0, 0, 0, 1, 1, 0, 0]>, <226, 14, 23, 9, 20, 1, 0, [0, 0, 0, 0, 1, 1, 0, 0]>, <227, 15, 24, 9, 20, 1, 0, [0, 0, 0, 0, 1, 1, 0, 0]>, <228, 22, 31, 9, 20, 1, 0, [0, 0, 0, 0, 1, 1, 0, 0]>, <229, 23, 32, 9, 20, 1, 0, [0, 0, 0, 0, 1, 1, 0, 0]>, <230, 24, 33, 9, 20, 1, 0, [0, 0, 0, 0, 1, 1, 0, 0]>, <231, 4, 17, 13, 21, 0, 0, [0, 0, 0, 0, 0, 1, 1, 0]>, <232, 5, 18, 13, 21, 0, 0, [0, 0, 0, 0, 0, 1, 1, 0]>, <233, 6, 19, 13, 21, 0, 0, [0, 0, 0, 0, 0, 1, 1, 0]>, <234, 13, 26, 13, 21, 0, 0, [0, 0, 0, 0, 0, 1, 1, 0]>, <235, 14, 27, 13, 21, 0, 0, [0, 0, 0, 0, 0, 1, 1, 0]>, <236, 15, 28, 13, 21, 0, 0, [0, 0, 0, 0, 0, 1, 1, 0]>, <237, 18, 31, 13, 21, 0, 0, [0, 0, 0, 0, 0, 1, 1, 0]>, <238, 19, 32, 13, 21, 0, 0, [0, 0, 0, 0, 0, 1, 1, 0]>, <239, 20, 33, 13, 21, 0, 0, [0, 0, 0, 0, 0, 1, 1, 0]>, <240, 21, 34, 13, 21, 0, 0, [0, 0, 0, 0, 0, 1, 1, 0]>, <241, 22, 35, 13, 21, 0, 0, [0, 0, 0, 0, 0, 1, 1, 0]>};
